(set-logic HORN)
(set-info :source |
  Benchmark: test_safe_2019/esop2017/fold_div.ml
  Generated by MoCHi
|)
(set-info :status unknown)
(declare-fun |f_37[133:0]| ( Int) Bool)
(declare-fun |fold_left[55:5][121:0]| ( Int  Int  Int) Bool)
(declare-fun |fold_left[55:0][100:3][107:0]| ( Int  Int  Int) Bool)
(declare-fun |fold_left[55:0][100:1]| ( Int  Int) Bool)
(declare-fun |fold_left[55:3][63:1][86:0]| ( Int  Int  Int  Int) Bool)
(declare-fun |make_list[21:1][51:1][67:1][82:0]| ( Int  Int  Int  Int) Bool)
(declare-fun |make_list[21:1][51:1][67:0]| ( Int  Int  Int) Bool)
(declare-fun |fold_left[55:3][63:0]| ( Int  Int  Int) Bool)
(declare-fun |fold_left[55:2]| ( Int  Int) Bool)
(declare-fun |make_list[21:1][51:0]| ( Int  Int) Bool)
(declare-fun |randpos[31:1][43:0]| ( Int  Int) Bool)
(declare-fun |randpos[31:0]| ( Int) Bool)
(declare-fun |make_list[24:1][27:0]| ( Int  Int) Bool)
(declare-fun |make_list[24:0]| ( Int) Bool)
(declare-fun |make_list[21:0]| ( Int) Bool)
(assert (not (exists ((x0 Int)) (|f_37[133:0]| x0))))
(assert (forall ((x0 Int)(var53 Int)(var55 Int)(var54 Int)) (=> (and (|fold_left[55:5][121:0]| var53 var55 x0) (|make_list[21:1][51:0]| var54 var55)) (|f_37[133:0]| x0))))
(assert (forall ((x1 Int)(x2 Int)(x3 Int)(var56 Int)) (=> (and (|fold_left[55:3][63:1][86:0]| x1 x2 0 var56) (and (|fold_left[55:2]| x1 x2) (and (|fold_left[55:0][100:3][107:0]| x1 var56 x3) (<= 1 x2)))) (|fold_left[55:5][121:0]| x1 x2 x3))))
(assert (forall ((x3 Int)(x4 Int)(x5 Int)(x2 Int)(x0 Int)) (=> (and (|make_list[21:1][51:0]| x2 x0) (and (|fold_left[55:0][100:1]| x3 x4) (and (= x5 0) (= x4 0)))) (|fold_left[55:0][100:3][107:0]| x3 x4 x5))))
(assert (forall ((x3 Int)(x4 Int)(var58 Int)) (=> (and (|fold_left[55:3][63:1][86:0]| x3 var58 0 x4) (and (|fold_left[55:2]| x3 var58) (<= 1 var58))) (|fold_left[55:0][100:1]| x3 x4))))
(assert (forall ((x3 Int)(x4 Int)(x1 Int)(x2 Int)(x0 Int)) (=> (and (|fold_left[55:2]| x3 x4) (and (|make_list[21:1][51:1][67:1][82:0]| x0 x4 x1 x2) (|make_list[21:1][51:0]| x0 x4))) (|fold_left[55:3][63:1][86:0]| x3 x4 x1 x2))))
(assert (forall ((x2 Int)(x3 Int)(x0 Int)(x1 Int)(var63 Int)(var66 Int)(var65 Int)(var64 Int)) (=> (and (|make_list[21:1][51:1][67:0]| x2 var63 x0) (and (|make_list[24:1][27:0]| var65 var66) (and (|randpos[31:1][43:0]| var64 x1) (and (|make_list[21:1][51:0]| x2 x3) (and (|make_list[21:0]| x2) (and (= var63 (+ 1 var66)) (and (= x3 (+ 1 var66)) (and (= (+ 1 var65) x2) (and (= x0 0) (>= x2 1)))))))))) (|make_list[21:1][51:1][67:1][82:0]| x2 x3 x0 x1))))
(assert (forall ((x3 Int)(x1 Int)(x2 Int)(x0 Int)) (=> (and (|make_list[21:0]| x3) (and (|fold_left[55:3][63:0]| x0 x1 x2) (|make_list[21:1][51:0]| x3 x1))) (|make_list[21:1][51:1][67:0]| x3 x1 x2))))
(assert (forall ((x1 Int)(x2 Int)(x3 Int)) (=> (and (|fold_left[55:2]| x1 x2) (and (= x3 0) (<= 1 x2))) (|fold_left[55:3][63:0]| x1 x2 x3))))
(assert (forall ((x0 Int)(x2 Int)(x1 Int)) (=> (|make_list[21:1][51:0]| x1 x2) (|fold_left[55:2]| x0 x2))))
(assert (forall ((x0 Int)(x1 Int)(var69 Int)(var70 Int)(var67 Int)(var68 Int)) (=> (and (|randpos[31:1][43:0]| var67 var68) (and (|make_list[24:1][27:0]| var69 var70) (and (|make_list[21:0]| x0) (and (= (+ 1 var69) x0) (and (= x1 (+ 1 var70)) (>= x0 1)))))) (|make_list[21:1][51:0]| x0 x1))))
(assert (forall ((x0 Int)(x1 Int)) (=> (and (|randpos[31:0]| x0) (>= x1 1)) (|randpos[31:1][43:0]| x0 x1))))
(assert (forall ((x0 Int)(x1 Int)(var71 Int)(x2 Int)) (=> (and (|make_list[21:0]| x1) (and (|make_list[24:1][27:0]| var71 x2) (and (>= x1 1) (= (+ 1 var71) x1)))) (|randpos[31:0]| x0))))
(assert (forall ((x1 Int)(x0 Int)) (=> (and (|make_list[24:0]| x1) (and (= x0 0) (<= x1 0))) (|make_list[24:1][27:0]| x1 x0))))
(assert (forall ((x0 Int)(x1 Int)) (=> (and (|make_list[21:0]| x1) (and (= (+ 1 x0) x1) (>= x1 1))) (|make_list[24:0]| x0))))
(assert (forall ((x0 Int)) (|make_list[21:0]| x0)))
(check-sat)
(get-model)
(exit)
